p cnf 22 18
c p distribution  0.875 0.125
c p distribution  0.875 0.125
c p distribution  0.875 0.125
c p distribution  0.875 0.125
c p distribution  0.875 0.125
c p distribution  0.875 0.125
c p distribution  0.875 0.125
c p distribution  0.875 0.125
17 0
-22 0
17 -19 -1 0
19 -17 -1 0
17 -22 -3 0
22 -17 -3 0
22 -19 -5 0
19 -22 -5 0
18 -17 -7 0
17 -18 -7 0
20 -17 -9 0
17 -20 -9 0
18 -19 -11 0
19 -18 -11 0
17 -20 -13 0
20 -17 -13 0
22 -21 -15 0
21 -22 -15 0
